data/lp_files/pEFS/21_4.lp
\ Model foo
\ LP format - for model browsing. Use MPS format to capture full model detail.
Minimize
  z
Subject To
 allocateEach[1]: x[1,1] + x[2,1] = 1
 allocateAllCash: cashProportion[1] + cashProportion[2] = 1
 findWorstP[1,2]: z + 0.2120980741494867 cashProportion[1]
   - 0.2120980741494867 cashProportion[2] + 0.7879019258505131 x[1,1]
   - 0.7879019258505131 x[2,1] >= 0
 findWorstP[2,1]: z - 0.3287743293003683 cashProportion[1]
   + 0.3287743293003683 cashProportion[2] - 0.6712256706996318 x[1,1]
   + 0.6712256706996318 x[2,1] >= 0
Bounds
 z <= 1
 -infinity <= cashProportion[1] <= 1
 -infinity <= cashProportion[2] <= 1
Binaries
 x[1,1] x[2,1]
End
