data/mps_files/q3/21_4.mps
NAME foo
ROWS
 N  OBJ
 E  allocateEach[1]
 E  allocateAllCash
 G  findWorstP[1,2]
 G  findWorstP[2,1]
COLUMNS
    z         OBJ       1
    z         findWorstP[1,2]  1
    z         findWorstP[2,1]  1
    cashProportion[1]  allocateAllCash  1
    cashProportion[1]  findWorstP[1,2]  2.1209807414948670e-01
    cashProportion[1]  findWorstP[2,1]  -3.2877432930036826e-01
    cashProportion[2]  allocateAllCash  1
    cashProportion[2]  findWorstP[1,2]  -2.1209807414948670e-01
    cashProportion[2]  findWorstP[2,1]  3.2877432930036826e-01
    MARKER    'MARKER'                 'INTORG'
    x[1,1]    allocateEach[1]  1
    x[1,1]    findWorstP[1,2]  7.8790192585051311e-01
    x[1,1]    findWorstP[2,1]  -6.7122567069963179e-01
    x[2,1]    allocateEach[1]  1
    x[2,1]    findWorstP[1,2]  -7.8790192585051311e-01
    x[2,1]    findWorstP[2,1]  6.7122567069963179e-01
    MARKER    'MARKER'                 'INTEND'
RHS
    RHS1      allocateEach[1]  1
    RHS1      allocateAllCash  1
BOUNDS
 UP BND1      z         1
 MI BND1      cashProportion[1]
 UP BND1      cashProportion[1]  1
 MI BND1      cashProportion[2]
 UP BND1      cashProportion[2]  1
 BV BND1      x[1,1]  
 BV BND1      x[2,1]  
ENDATA
